c CNF file corresponding to a (partial) station packing problem.
p cnf 5669 171
1 2 3 4 5 6 7 8 9 10 11 12 13 14 0
-1 -2 0
-1 -3 0
-1 -4 0
-1 -5 0
-1 -6 0
-1 -7 0
-1 -8 0
-1 -9 0
-1 -10 0
-1 -11 0
-1 -12 0
-1 -13 0
-1 -14 0
-2 -3 0
-2 -4 0
-2 -5 0
-2 -6 0
-2 -7 0
-2 -8 0
-2 -9 0
-2 -10 0
-2 -11 0
-2 -12 0
-2 -13 0
-2 -14 0
-3 -4 0
-3 -5 0
-3 -6 0
-3 -7 0
-3 -8 0
-3 -9 0
-3 -10 0
-3 -11 0
-3 -12 0
-3 -13 0
-3 -14 0
-4 -5 0
-4 -6 0
-4 -7 0
-4 -8 0
-4 -9 0
-4 -10 0
-4 -11 0
-4 -12 0
-4 -13 0
-4 -14 0
-5 -6 0
-5 -7 0
-5 -8 0
-5 -9 0
-5 -10 0
-5 -11 0
-5 -12 0
-5 -13 0
-5 -14 0
-6 -7 0
-6 -8 0
-6 -9 0
-6 -10 0
-6 -11 0
-6 -12 0
-6 -13 0
-6 -14 0
-7 -8 0
-7 -9 0
-7 -10 0
-7 -11 0
-7 -12 0
-7 -13 0
-7 -14 0
-8 -9 0
-8 -10 0
-8 -11 0
-8 -12 0
-8 -13 0
-8 -14 0
-9 -10 0
-9 -11 0
-9 -12 0
-9 -13 0
-9 -14 0
-10 -11 0
-10 -12 0
-10 -13 0
-10 -14 0
-11 -12 0
-11 -13 0
-11 -14 0
-12 -13 0
-12 -14 0
-13 -14 0
5657 5658 5659 5660 5661 5662 5663 5664 5665 5666 5667 5668 5669 0
-5657 -5658 0
-5657 -5659 0
-5657 -5660 0
-5657 -5661 0
-5657 -5662 0
-5657 -5663 0
-5657 -5664 0
-5657 -5665 0
-5657 -5666 0
-5657 -5667 0
-5657 -5668 0
-5657 -5669 0
-5658 -5659 0
-5658 -5660 0
-5658 -5661 0
-5658 -5662 0
-5658 -5663 0
-5658 -5664 0
-5658 -5665 0
-5658 -5666 0
-5658 -5667 0
-5658 -5668 0
-5658 -5669 0
-5659 -5660 0
-5659 -5661 0
-5659 -5662 0
-5659 -5663 0
-5659 -5664 0
-5659 -5665 0
-5659 -5666 0
-5659 -5667 0
-5659 -5668 0
-5659 -5669 0
-5660 -5661 0
-5660 -5662 0
-5660 -5663 0
-5660 -5664 0
-5660 -5665 0
-5660 -5666 0
-5660 -5667 0
-5660 -5668 0
-5660 -5669 0
-5661 -5662 0
-5661 -5663 0
-5661 -5664 0
-5661 -5665 0
-5661 -5666 0
-5661 -5667 0
-5661 -5668 0
-5661 -5669 0
-5662 -5663 0
-5662 -5664 0
-5662 -5665 0
-5662 -5666 0
-5662 -5667 0
-5662 -5668 0
-5662 -5669 0
-5663 -5664 0
-5663 -5665 0
-5663 -5666 0
-5663 -5667 0
-5663 -5668 0
-5663 -5669 0
-5664 -5665 0
-5664 -5666 0
-5664 -5667 0
-5664 -5668 0
-5664 -5669 0
-5665 -5666 0
-5665 -5667 0
-5665 -5668 0
-5665 -5669 0
-5666 -5667 0
-5666 -5668 0
-5666 -5669 0
-5667 -5668 0
-5667 -5669 0
-5668 -5669 0
